(set-logic QF_BV)
(declare-fun _substvar_1413_ () (_ BitVec 16))
(declare-fun _substvar_676_ () (_ BitVec 16))
(declare-fun _substvar_1420_ () (_ BitVec 16))
(declare-fun _substvar_691_ () (_ BitVec 16))
(declare-fun _substvar_686_ () (_ BitVec 16))
(declare-fun _substvar_700_ () (_ BitVec 16))
(declare-fun _substvar_696_ () (_ BitVec 16))
(declare-fun _substvar_1407_ () (_ BitVec 16))
(declare-fun _substvar_682_ () (_ BitVec 16))
(declare-fun _substvar_1425_ () (_ BitVec 16))
(declare-fun _substvar_681_ () (_ BitVec 16))
(declare-fun _substvar_1242_ () (_ BitVec 16))
(declare-fun _substvar_692_ () (_ BitVec 16))
(assert (let ((?v_15 (bvadd (_ bv0 32) (bvsub (bvadd (_ bv0 32) ((_ zero_extend 16) _substvar_700_)) (_ bv0 32))))) (let ((?v_1 (bvadd ?v_15 (_ bv4 32)))) (let ((?v_21 (bvadd ?v_1 (_ bv0 32)))) (let ((?v_2 (bvadd ?v_21 (_ bv4 32)))) (let ((?v_27 (bvadd ?v_2 (bvsub (bvadd (bvadd (bvadd ?v_2 (_ bv70 32)) (_ bv0 32)) ((_ zero_extend 16) _substvar_696_)) ?v_2)))) (let ((?v_3 (bvadd ?v_27 (_ bv4 32))) (?v_35 ((_ zero_extend 16) _substvar_692_))) (let ((?v_33 (bvadd ?v_3 (bvsub (bvadd (bvadd (bvadd ?v_3 (_ bv59 32)) ?v_35) ((_ zero_extend 16) _substvar_691_)) ?v_3)))) (let ((?v_4 (bvadd ?v_33 (_ bv4 32)))) (let ((?v_39 (bvadd ?v_4 (_ bv0 32)))) (let ((?v_5 (bvadd ?v_39 (_ bv4 32)))) (let ((?v_44 (bvadd ?v_5 (bvsub (bvadd (bvadd (bvadd ?v_5 (_ bv64 32)) (_ bv0 32)) ((_ zero_extend 16) _substvar_686_)) ?v_5)))) (let ((?v_6 (bvadd ?v_44 (_ bv4 32))) (?v_49 ((_ zero_extend 16) _substvar_682_))) (let ((?v_51 (bvadd ?v_6 (bvsub (bvadd (bvadd (bvadd ?v_6 (_ bv59 32)) ?v_49) ((_ zero_extend 16) _substvar_681_)) ?v_6)))) (let ((?v_7 (bvadd ?v_51 (_ bv4 32))) (?v_50 ((_ zero_extend 16) _substvar_676_))) (let ((?v_53 (bvadd ?v_7 (bvsub (bvadd (bvadd (bvadd ?v_7 (_ bv60 32)) ?v_50) ((_ zero_extend 16) _substvar_1407_)) ?v_7)))) (let ((?v_8 (bvadd ?v_53 (_ bv4 32)))) (let ((?v_55 (bvadd ?v_8 (bvsub (bvadd (bvadd (bvadd ?v_8 (_ bv62 32)) (_ bv0 32)) ((_ zero_extend 16) _substvar_1242_)) ?v_8)))) (let ((?v_9 (bvadd ?v_55 (_ bv4 32))) (?v_54 ((_ zero_extend 16) _substvar_1420_))) (let ((?v_57 (bvadd ?v_9 (bvsub (bvadd (bvadd (bvadd ?v_9 (_ bv59 32)) ?v_54) ((_ zero_extend 16) _substvar_1413_)) ?v_9)))) (let ((?v_10 (bvadd ?v_57 (_ bv4 32)))) (let ((?v_59 (bvadd ?v_10 (bvsub (bvadd (bvadd (bvadd ?v_10 (_ bv57 32)) (_ bv0 32)) ((_ zero_extend 16) _substvar_1425_)) ?v_10)))) (let ((?v_58 (bvadd ?v_59 (_ bv4 32)))) (and true true true true true true true true true true true true true true true true true true true true true true true true true (bvslt (bvadd (bvadd ?v_58 (_ bv58 32)) (_ bv0 32)) (_ bv0 32)) true true true true true true true true true true true true true true true true true true true true true true true true true true true true true true true true true true true true true true true true true true true true true true true true true true true true true true true true true true true true true true true true true true true true true true true true true true true true true true true true true true true true true true true true true true true true true true true true true true true true true true true true true true true true true true))))))))))))))))))))))))
(check-sat)
(exit)
